50, 640
46, 46
32, 32
38, 38
5, 5
16, 16
32, 32
6, 6
19, 19
14, 14
15, 15
15, 15
15, 15
36, 36
32, 32
31, 31
50, 50
7, 7
19, 19
44, 44
44, 44
13, 13
16, 16
28, 28
36, 36
21, 21
32, 32
6, 6
27, 27
1, 1
40, 40
30, 30
39, 39
42, 42
18, 18
26, 26
8, 8
18, 18
36, 36
45, 45
28, 28
16, 16
15, 15
14, 14
34, 34
10, 10
47, 47
26, 26
34, 34
30, 30
29, 29
